(declare-const a Real)
(declare-const b Real)
(declare-const c Real)
(assert (= (+ a b c) 3))
(assert (> a 0))
(assert (> b 0))
(assert (> c 0))
(assert (not (<= (+ (* (pow (* (pow a (* 4384 c)) (pow (* b (pow a 3)) (* 1120 b))) (pow (+ (* 1096 c) (* 1120 b)) -1)) (+ (* -1120 b) (* -1096 c))) (* -6080 a (pow c 4)) (* -6080 b (pow a 4)) (* -5960 c (pow b 4)) (* -1216 a (pow b 4)) (* -1216 b (pow c 4)) (* -1120 (pow a 2) (pow c 3)) (* 45 c (pow (+ a b) 4)) (* 800 (pow b 3) (pow c 2)) (* 1120 (pow a 2) (pow b 3)) (* 1120 (pow b 2) (pow c 3)) (* 3040 (pow a 3) (pow c 2)) (* 5376 a b (pow c 3)) (* 5856 a c (pow b 3)) (* 5856 b c (pow a 3))) 0)))
(check-sat)
(get-model)
(exit)